269,705
326,462
539,360
1162,161
1051,286
888,438
858,378
787,352
672,434
707,393
1045,670
923,230
602,-97
617,207
560,318
334,583
385,702
633,371
998,-30
980,-6
826,511
733,478
681,556
617,605
548,338
935,660
1020,745
532,112
